<number of tasks>
50

<cycle time>
1000

<order strength>
0.197


<task times>
1 216
2 47
3 445
4 220
5 42
6 70
7 31
8 43
9 305
10 487
11 31
12 285
13 516
14 474
15 241
16 309
17 154
18 60
19 328
20 166
21 148
22 260
23 194
24 155
25 365
26 448
27 212
28 143
29 250
30 304
31 94
32 39
33 122
34 74
35 59
36 137
37 243
38 72
39 247
40 466
41 410
42 486
43 250
44 451
45 85
46 41
47 66
48 364
49 70
50 290

<precedence relations>
1,9
2,9
3,9
4,9
5,10
6,11
7,12
8,13
8,14
8,15
8,16
8,17
8,18
9,19
9,20
9,21
9,22
9,40
9,44
10,23
11,24
12,26
13,25
13,41
16,50
17,44
18,27
19,33
20,50
21,31
22,32
23,30
24,28
25,29
27,46
28,35
29,34
31,36
34,37
35,38
35,39
35,40
36,43
37,42
40,41
40,43
41,45
41,48
42,44
42,46
43,47
43,49
43,50

<end>
